13
Properties=species:S:1:pos:R:3:tags:I:1 charge=0 spin=1 pbc="F F F"
C        1.78096640       0.60876721       0.45907706        0
O        0.37519932       0.51476681       0.43230531        0
C       -0.08030965      -0.60310143      -0.30408582        0
C       -1.58495033      -0.50657678      -0.37638408        0
O       -1.99661624       0.66988701      -1.04662132        0
H        2.04073834       1.49139380       1.03936028        0
H        2.22770882      -0.27408037       0.93025583        0
H        2.18939471       0.71027416      -0.55264312        0
H        0.34751943      -0.58526909      -1.31464851        0
H        0.22196700      -1.53766000       0.18702497        0
H       -1.98356855      -1.35161138      -0.93820226        0
H       -1.99694228      -0.54298687       0.63856333        0
H       -1.54312837       1.40541577      -0.61899650        0
13
Properties=species:S:1:pos:R:3:tags:I:1 charge=0 spin=1 pbc="F F F"
C        1.77659225       0.61872596       0.45306772        0
O        0.36726916       0.50848877       0.43247893        0
C       -0.08769386      -0.62484306      -0.30284050        0
C       -1.58842051      -0.50900429      -0.38288108        0
O       -1.97793889       0.68315482      -1.02999341        0
H        2.02954602       1.50468278       1.03510833        0
H        2.23361397      -0.25997019       0.91931939        0
H        2.16666532       0.72532731      -0.56278706        0
H        0.34672451      -0.58772475      -1.30689883        0
H        0.21362235      -1.55188251       0.19947116        0
H       -1.98779488      -1.34395278      -0.96186256        0
H       -2.01152635      -0.55739826       0.62352562        0
H       -1.48535168       1.38228834      -0.58044112        0
13
Properties=species:S:1:pos:R:3:tags:I:1 charge=0 spin=1 pbc="F F F"
C        1.77231097       0.62852705       0.44738832        0
O        0.36000329       0.50221688       0.43335184        0
C       -0.09506037      -0.64595461      -0.30188695        0
C       -1.59193504      -0.51133484      -0.38935626        0
O       -1.95931995       0.69566792      -1.01397431        0
H        2.01855493       1.51782942       1.03087318        0
H        2.23960018      -0.24587998       0.90887672        0
H        2.14466834       0.73987585      -0.57255965        0
H        0.34596497      -0.59056616      -1.29968715        0
H        0.20538624      -1.56555128       0.21138436        0
H       -1.99223173      -1.33621395      -0.98488170        0
H       -2.02583241      -0.57112944       0.60889637        0
H       -1.42954957       1.35961115      -0.54293549        0
13
Properties=species:S:1:pos:R:3:tags:I:1 charge=0 spin=1 pbc="F F F"
C        1.76812303       0.63817120       0.44203359        0
O        0.35338482       0.49595797       0.43489859        0
C       -0.10240830      -0.66644394      -0.30122203        0
C       -1.59549272      -0.51357353      -0.39580470        0
O       -1.94076836       0.70743990      -0.99855906        0
H        2.00776577       1.53083289       1.02665246        0
H        2.24566054      -0.23181160       0.89892620        0
H        2.12339973       0.75392270      -0.58196056        0
H        0.34522921      -0.59378809      -1.29300714        0
H        0.19726184      -1.57867277       0.22276968        0
H       -1.99687684      -1.32840240      -1.00726259        0
H       -2.03985739      -0.58419454       0.59467471        0
H       -1.37567973       1.33738554      -0.50646561        0
13
Properties=species:S:1:pos:R:3:tags:I:1 charge=0 spin=1 pbc="F F F"
C        1.76402819       0.64765924       0.43699834        0
O        0.34739688       0.48971900       0.43709394        0
C       -0.10973686      -0.68631911      -0.30084267        0
C       -1.59909308      -0.51572531      -0.40222159        0
O       -1.92229331       0.71848440      -0.98374182        0
H        1.99717939       1.54369283       1.02244306        0
H        2.25178742      -0.21776691       0.88946629        0
H        2.10285497       0.76747084      -0.59098971        0
H        0.34450564      -0.59738553      -1.28685236        0
H        0.18925235      -1.59125352       0.23363233        0
H       -2.00172710      -1.32052541      -1.02900839        0
H       -2.05359912      -0.59660804       0.58085972        0
H       -1.32370055       1.31561327      -0.47101763        0
13
Properties=species:S:1:pos:R:3:tags:I:1 charge=0 spin=1 pbc="F F F"
C        1.76002681       0.65699202       0.43227726        0
O        0.34202263       0.48350680       0.43991271        0
C       -0.11704526      -0.70558822      -0.30074579        0
C       -1.60273504      -0.51779521      -0.40860212        0
O       -1.90390337       0.72881496      -0.96951723        0
H        1.98679590       1.55640841       1.01824284        0
H        2.25797343      -0.20374781       0.88049537        0
H        2.08302903       0.78052354      -0.59964693        0
H        0.34378284      -0.60135317      -1.28121626        0
H        0.18136090      -1.60329998       0.24397764        0
H       -2.00677991      -1.31258988      -1.05012226        0
H       -2.06705451      -0.60838407       0.56745064        0
H       -1.27356946       1.29429543      -0.43657747        0
13
Properties=species:S:1:pos:R:3:tags:I:1 charge=0 spin=1 pbc="F F F"
C        1.75611866       0.66617042       0.42786533        0
O        0.33724502       0.47732827       0.44332981        0
C       -0.12433286      -0.72425961      -0.30092821        0
C       -1.60641778      -0.51978797      -0.41494152        0
O       -1.88560736       0.73844540      -0.95587939        0
H        1.97661674       1.56897914       1.01404929        0
H        2.26421189      -0.18975608       0.87201154        0
H        2.06391788       0.79308385      -0.60793215        0
H        0.34304947      -0.60568577      -1.27609229        0
H        0.17359067      -1.61481917       0.25381085        0
H       -2.01203227      -1.30460358      -1.07060778        0
H       -2.08022165      -0.61953700       0.55444622        0
H       -1.22524440       1.27343309      -0.40313083        0
13
Properties=species:S:1:pos:R:3:tags:I:1 charge=0 spin=1 pbc="F F F"
C        1.75230372       0.67519510       0.42375723        0
O        0.33304709       0.47119021       0.44732028        0
C       -0.13159902      -0.74234176      -0.30138677        0
C       -1.61014009      -0.52170837      -0.42123511        0
O       -1.86741376       0.74738955      -0.94282228        0
H        1.96664190       1.58140433       1.00985980        0
H        2.27049518      -0.17579357       0.86401314        0
H        2.04551578       0.80515510      -0.61584556        0
H        0.34229416      -0.61037779      -1.27147365        0
H        0.16594470      -1.62581766       0.26313740        0
H       -2.01748180      -1.29657340      -1.09046829        0
H       -2.09309793      -0.63008082       0.54184544        0
H       -1.17868352       1.25302720      -0.37066352        0
13
Properties=species:S:1:pos:R:3:tags:I:1 charge=0 spin=1 pbc="F F F"
C        1.74858236       0.68406713       0.41994786        0
O        0.32941189       0.46509957       0.45185941        0
C       -0.13884316      -0.75984317      -0.30211818        0
C       -1.61390102      -0.52356112      -0.42747834        0
O       -1.84933114       0.75566131      -0.93033999        0
H        1.95687258       1.59368372       1.00567186        0
H        2.27681684      -0.16186205       0.85649812        0
H        2.02781796       0.81674063      -0.62338710        0
H        0.34150583      -0.61542392      -1.26735342        0
H        0.15842605      -1.63630271       0.27196252        0
H       -2.02312517      -1.28850639      -1.10970747        0
H       -2.10568094      -0.64002991       0.52964699        0
H       -1.13384426       1.23307848      -0.33916131        0
13
Properties=species:S:1:pos:R:3:tags:I:1 charge=0 spin=1 pbc="F F F"
C        1.74495435       0.69278711       0.41643208        0
O        0.32632235       0.45906314       0.45692256        0
C       -0.14606483      -0.77677256      -0.30311930        0
C       -1.61769974      -0.52535081      -0.43366653        0
O       -1.83136761       0.76327449      -0.91842616        0
H        1.94730926       1.60581636       1.00148296        0
H        2.28316903      -0.14796327       0.84946448        0
H        2.01081920       0.82784379      -0.63055694        0
H        0.34067342      -0.62081838      -1.26372504        0
H        0.15103772      -1.64628112       0.28029177        0
H       -2.02895951      -1.28040969      -1.12832916        0
H       -2.11796832      -0.64939827       0.51784950        0
H       -1.09068465       1.21358728      -0.30860955        0
13
Properties=species:S:1:pos:R:3:tags:I:1 charge=0 spin=1 pbc="F F F"
C        1.74141979       0.70135617       0.41320479        0
O        0.32376146       0.45308769       0.46248528        0
C       -0.15326354      -0.79313868      -0.30438679        0
C       -1.62153459      -0.52708179      -0.43979526        0
O       -1.81353140       0.77024317      -0.90707457        0
H        1.93795204       1.61780226       0.99729079        0
H        2.28954506      -0.13409896       0.84291011        0
H        1.99451351       0.83846819      -0.63735545        0
H        0.33978599      -0.62655556      -1.26058137        0
H        0.14378276      -1.65576005       0.28813049        0
H       -2.03498197      -1.27229035      -1.14633691        0
H       -2.12995815      -0.65820003       0.50645161        0
H       -1.04916251       1.19455385      -0.27899396        0
13
Properties=species:S:1:pos:R:3:tags:I:1 charge=0 spin=1 pbc="F F F"
C        1.73797870       0.70977503       0.41026086        0
O        0.32171220       0.44717997       0.46852335        0
C       -0.16043897      -0.80895060      -0.30591738        0
C       -1.62540448      -0.52875853      -0.44586009        0
O       -1.79583049       0.77658135      -0.89627862        0
H        1.92880237       1.62964046       0.99309295        0
H        2.29593801      -0.12027079       0.83683276        0
H        1.97889495       0.84861743      -0.64378285        0
H        0.33883274      -0.63262975      -1.25791526        0
H        0.13666400      -1.66474700       0.29548422        0
H       -2.04118919      -1.26415539      -1.16373503        0
H       -2.14164829      -0.66644919       0.49545160        0
H       -1.00923586       1.17597830      -0.25029978        0
13
Properties=species:S:1:pos:R:3:tags:I:1 charge=0 spin=1 pbc="F F F"
C        1.73463130       0.71804476       0.40759522        0
O        0.32015747       0.44134679       0.47501278        0
C       -0.16759074      -0.82421732      -0.30770773        0
C       -1.62930858      -0.53038532      -0.45185661        0
O       -1.77827251       0.78230286      -0.88603157        0
H        1.91986036       1.64133084       0.98888695        0
H        2.30234122      -0.10648039       0.83123004        0
H        1.96395779       0.85829508      -0.64983952        0
H        0.33780295      -0.63903499      -1.25572002        0
H        0.12968442      -1.67324901       0.30235827        0
H       -2.04757857      -1.25601125      -1.18052745        0
H       -2.15303636      -0.67415971       0.48484787        0
H       -0.97086275       1.15786052      -0.22251245        0
13
Properties=species:S:1:pos:R:3:tags:I:1 charge=0 spin=1 pbc="F F F"
C        1.73137748       0.72616607       0.40520284        0
O        0.31908035       0.43559486       0.48192972        0
C       -0.17471863      -0.83894813      -0.30975455        0
C       -1.63324511      -0.53196639      -0.45778054        0
O       -1.76086521       0.78742182      -0.87632674        0
H        1.91112649       1.65287280       0.98467058        0
H        2.30874825      -0.09272937       0.82609987        0
H        1.94969583       0.86750489      -0.65552610        0
H        0.33668613      -0.64576536      -1.25398827        0
H        0.12284683      -1.68127370       0.30875835        0
H       -2.05414629      -1.24786532      -1.19671822        0
H       -2.16412067      -0.68134558       0.47463861        0
H       -0.93400121       1.14020014      -0.19561735        0
13
Properties=species:S:1:pos:R:3:tags:I:1 charge=0 spin=1 pbc="F F F"
C        1.72821724       0.73414016       0.40307862        0
O        0.31846374       0.42993087       0.48925060        0
C       -0.18182242      -0.85315222      -0.31205440        0
C       -1.63721275      -0.53350580      -0.46362764        0
O       -1.74361610       0.79195231      -0.86715704        0
H        1.90260184       1.66426599       0.98044127        0
H        2.31515145      -0.07901922       0.82143927        0
H        1.93610263       0.87625068      -0.66084301        0
H        0.33547187      -0.65281492      -1.25271261        0
H        0.11615399      -1.68882835       0.31468973        0
H       -2.06088972      -1.23972392      -1.21231198        0
H       -2.17489958      -0.68802053       0.46482202        0
H       -0.89860970       1.12299669      -0.16959968        0
13
Properties=species:S:1:pos:R:3:tags:I:1 charge=0 spin=1 pbc="F F F"
C        1.72515082       0.74196786       0.40121767        0
O        0.31829083       0.42436150       0.49695212        0
C       -0.18890193      -0.86683911      -0.31460398        0
C       -1.64121044      -0.53500760      -0.46939370        0
O       -1.72653222       0.79590827      -0.85851556        0
H        1.89428675       1.67551029       0.97619689        0
H        2.32154489      -0.06535149       0.81724584        0
H        1.92317176       0.88453633      -0.66579092        0
H        0.33414990      -0.66017753      -1.25188601        0
H        0.10960865      -1.69592083       0.32015803        0
H       -2.06780505      -1.23159361      -1.22731304        0
H       -2.18537068      -0.69419849       0.45539600        0
H       -0.86464691       1.10624921      -0.14444482        0
13
Properties=species:S:1:pos:R:3:tags:I:1 charge=0 spin=1 pbc="F F F"
C        1.72217822       0.74965030       0.39961496        0
O        0.31854457       0.41889337       0.50501132        0
C       -0.19595708      -0.88001835      -0.31739986        0
C       -1.64523661      -0.53647566      -0.47507477        0
O       -1.70962071       0.79930371      -0.85039490        0
H        1.88618159       1.68660510       0.97193509        0
H        2.32792187      -0.05172757       0.81351668        0
H        1.91089606       0.89236575      -0.67037070        0
H        0.33271009      -0.66784692      -1.25150108        0
H        0.10321348      -1.70255864       0.32516873        0
H       -2.07488966      -1.22348118      -1.24172580        0
H       -2.19553280      -0.69989300       0.44635838        0
H       -0.83207119       1.08995676      -0.12013784        0
13
Properties=species:S:1:pos:R:3:tags:I:1 charge=0 spin=1 pbc="F F F"
C        1.71929967       0.75718856       0.39826548        0
O        0.31920815       0.41353309       0.51340538        0
C       -0.20298782      -0.89269960      -0.32043868        0
C       -1.64928973      -0.53791386      -0.48066664        0
O       -1.69288826       0.80215257      -0.84278768        0
H        1.87828743       1.69755030       0.96765369        0
H        2.33427620      -0.03814883       0.81024915        0
H        1.89926898       0.89974302      -0.67458302        0
H        0.33114249      -0.67581695      -1.25155032        0
H        0.09697109      -1.70874965       0.32972717        0
H       -2.08213949      -1.21539295      -1.25555491        0
H       -2.20538378      -0.70511788       0.43770713        0
H       -0.80084169       1.07411838      -0.09666398        0
13
Properties=species:S:1:pos:R:3:tags:I:1 charge=0 spin=1 pbc="F F F"
C        1.71651518       0.76458365       0.39716440        0
O        0.32026473       0.40828723       0.52211183        0
C       -0.20999409      -0.90489256      -0.32371700        0
C       -1.65336835      -0.53932589      -0.48616549        0
O       -1.67634177       0.80446881      -0.83568656        0
H        1.87060463       1.70834541       0.96335030        0
H        2.34060168      -0.02461658       0.80744016        0
H        1.88828313       0.90667218      -0.67842895        0
H        0.32943732      -0.68408126      -1.25202644        0
H        0.09088402      -1.71450150       0.33383888        0
H       -2.08955193      -1.20733523      -1.26880538        0
H       -2.21492243      -0.70988661       0.42943978        0
H       -0.77091765       1.05873251      -0.07400844        0
13
Properties=species:S:1:pos:R:3:tags:I:1 charge=0 spin=1 pbc="F F F"
C        1.71382487       0.77183688       0.39630672        0
O        0.32169756       0.40316242       0.53110868        0
C       -0.21697597      -0.91660720      -0.32723141        0
C       -1.65747106      -0.54071540      -0.49156746        0
O       -1.65998745       0.80626643      -0.82908350        0
H        1.86313343       1.71899056       0.95902282        0
H        2.34689164      -0.01113204       0.80508685        0
H        1.87793124       0.91315746      -0.68190950        0
H        0.32758492      -0.69263339      -1.25292194        0
H        0.08495472      -1.71982217       0.33750933        0
H       -2.09712267      -1.19931400      -1.28148174        0
H       -2.22414684      -0.71421266       0.42155379        0
H       -0.74225831       1.04379749      -0.05215624        0
13
Properties=species:S:1:pos:R:3:tags:I:1 charge=0 spin=1 pbc="F F F"
C        1.71122897       0.77894926       0.39568764        0
O        0.32348993       0.39816496       0.54037410        0
C       -0.22393352      -0.92785347      -0.33097845        0
C       -1.66159606      -0.54208589      -0.49686870        0
O       -1.64383149       0.80755895      -0.82297111        0
H        1.85587502       1.72948515       0.95466918        0
H        2.35314059       0.00230363       0.80318570        0
H        1.86820590       0.91920304      -0.68502575        0
H        0.32557589      -0.70146686      -1.25422907        0
H        0.07918562      -1.72471964       0.34074387        0
H       -2.10484886      -1.19133580      -1.29358900        0
H       -2.23305583      -0.71810943       0.41404676        0
H       -0.71482366       1.02931166      -0.03109282        0
13
Properties=species:S:1:pos:R:3:tags:I:1 charge=0 spin=1 pbc="F F F"
C        1.70872772       0.78592223       0.39530224        0
O        0.32562536       0.39330143       0.54988658        0
C       -0.23086686      -0.93864143      -0.33495474        0
C       -1.66574192      -0.54344088      -0.50206554        0
O       -1.62787974       0.80836046      -0.81734121        0
H        1.84882927       1.73982942       0.95028704        0
H        2.35934210       0.01568936       0.80173337        0
H        1.85909951       0.92481327      -0.68777895        0
H        0.32340088      -0.71057528      -1.25594044        0
H        0.07357906      -1.72920179       0.34354788        0
H       -2.11272717      -1.18340611      -1.30513215        0
H       -2.24164796      -0.72159028       0.40691584        0
H       -0.68857354       1.01527297      -0.01080310        0
13
Properties=species:S:1:pos:R:3:tags:I:1 charge=0 spin=1 pbc="F F F"
C        1.70632124       0.79275686       0.39514577        0
O        0.32808727       0.38857818       0.55962509        0
C       -0.23777615      -0.94898105      -0.33915690        0
C       -1.66990709      -0.54478359      -0.50715441        0
O       -1.61213791       0.80868441      -0.81218576        0
H        1.84199750       1.75002289       0.94587451        0
H        2.36549067       0.02902411       0.80072677        0
H        1.85060406       0.92999238      -0.69017041        0
H        0.32105076      -0.71995187      -1.25804853        0
H        0.06813726      -1.73327684       0.34592670        0
H       -2.12075329      -1.17553103      -1.31611645        0
H       -2.24992204      -0.72466838       0.40015841        0
H       -0.66346872       1.00167930       0.00872752        0
13
Properties=species:S:1:pos:R:3:tags:I:1 charge=0 spin=1 pbc="F F F"
C        1.70401001       0.79945475       0.39521343        0
O        0.33085927       0.38400158       0.56956899        0
C       -0.24466157      -0.95888281      -0.34358144        0
C       -1.67408979      -0.54611737      -0.51213163        0
O       -1.59661162       0.80854452      -0.80749673        0
H        1.83537984       1.76006591       0.94142938        0
H        2.37158084       0.04230699       0.80016208        0
H        1.84271145       0.93474507      -0.69220155        0
H        0.31851685      -0.72959006      -1.26054549        0
H        0.06286238      -1.73695278       0.34788558        0
H       -2.12892437      -1.16771626      -1.32654703        0
H       -2.25787663      -0.72735691       0.39377153        0
H       -0.63946974       0.98852801       0.02751380        0
13
Properties=species:S:1:pos:R:3:tags:I:1 charge=0 spin=1 pbc="F F F"
C        1.70179391       0.80601704       0.39550042        0
O        0.33392519       0.37957788       0.57969797        0
C       -0.25152335      -0.96835685      -0.34822497        0
C       -1.67828858      -0.54744530      -0.51699388        0
O       -1.58130586       0.80795431      -0.80326557        0
H        1.82897675       1.76995814       0.93694961        0
H        2.37760663       0.05553716       0.80003583        0
H        1.83541358       0.93907559      -0.69387400        0
H        0.31579018      -0.73948318      -1.26342368        0
H        0.05775654      -1.74023771       0.34942985        0
H       -2.13723612      -1.15996730      -1.33642900        0
H       -2.26551080      -0.72966886       0.38775200        0
H       -0.61653805       0.97581673       0.04557064        0
13
Properties=species:S:1:pos:R:3:tags:I:1 charge=0 spin=1 pbc="F F F"
C        1.69967365       0.81244546       0.39600199        0
O        0.33726877       0.37531331       0.58999193        0
C       -0.25836173      -0.97741359      -0.35308400        0
C       -1.68250167      -0.54877043      -0.52173781        0
O       -1.56622577       0.80692720      -0.79948401        0
H        1.82278919       1.77969956       0.93243331        0
H        2.38356304       0.06871384       0.80034411        0
H        1.82870221       0.94298863      -0.69518924        0
H        0.31286237      -0.74962437      -1.26667571        0
H        0.05282171      -1.74313974       0.35056457        0
H       -2.14568543      -1.15228939      -1.34576797        0
H       -2.27282333      -0.73161709       0.38209677        0
H       -0.59463531       0.96354240       0.06291288        0
13
Properties=species:S:1:pos:R:3:tags:I:1 charge=0 spin=1 pbc="F F F"
C        1.69764924       0.81874132       0.39671350        0
O        0.34087402       0.37121409       0.60043168        0
C       -0.26517695      -0.98606354      -0.35815525        0
C       -1.68672729      -0.55009568      -0.52635998        0
O       -1.55137575       0.80547631      -0.79614353        0
H        1.81681740       1.78929055       0.92787844        0
H        2.38944435       0.08183636       0.80108303        0
H        1.82256889       0.94648880      -0.69614923        0
H        0.30972496      -0.76000679      -1.27029347        0
H        0.04805984      -1.74566734       0.35129493        0
H       -2.15426826      -1.14468801      -1.35456920        0
H       -2.27981377      -0.73321438       0.37680271        0
H       -0.57372338       0.95170224       0.07955486        0
13
Properties=species:S:1:pos:R:3:tags:I:1 charge=0 spin=1 pbc="F F F"
C        1.69572139       0.82490623       0.39763027        0
O        0.34472513       0.36728638       0.61099809        0
C       -0.27196941      -0.99431717      -0.36343527        0
C       -1.69096386      -0.55142403      -0.53085738        0
O       -1.53676033       0.80361485      -0.79323524        0
H        1.81106186       1.79873097       0.92328298        0
H        2.39524579       0.09490421       0.80224848        0
H        1.81700516       0.94958067      -0.69675565        0
H        0.30636999      -0.77062362      -1.27426970        0
H        0.04347265      -1.74782860       0.35162604        0
H       -2.16298127      -1.13716829      -1.36283815        0
H       -2.28648019      -0.73447347       0.37186629        0
H       -0.55376518       0.94029295       0.09551114        0
13
Properties=species:S:1:pos:R:3:tags:I:1 charge=0 spin=1 pbc="F F F"
C        1.69389033       0.83094198       0.39874756        0
O        0.34880635       0.36353612       0.62167245        0
C       -0.27873936      -1.00218499      -0.36892068        0
C       -1.69520974      -0.55275810      -0.53522688        0
O       -1.52238369       0.80135596      -0.79075074        0
H        1.80552340       1.80802107       0.91864520        0
H        2.40096283       0.10791692       0.80383652        0
H        1.81200171       0.95226920      -0.69701052        0
H        0.30278948      -0.78146803      -1.27859628        0
H        0.03906192      -1.74963152       0.35156280        0
H       -2.17182040      -1.12973487      -1.37058043        0
H       -2.29282284      -0.73540699       0.36728409        0
H       -0.53472388       0.92931116       0.11079657        0
13
Properties=species:S:1:pos:R:3:tags:I:1 charge=0 spin=1 pbc="F F F"
C        1.69215631       0.83685017       0.40006095        0
O        0.35310209       0.35996941       0.63243669        0
C       -0.28548717      -1.00967765      -0.37460813        0
C       -1.69946313      -0.55410057      -0.53946543        0
O       -1.50824964       0.79871237      -0.78868079        0
H        1.80020261       1.81716084       0.91396320        0
H        2.40658975       0.12087400       0.80584270        0
H        1.80755007       0.95455885      -0.69691586        0
H        0.29897571      -0.79253292      -1.28326571        0
H        0.03482932      -1.75108469       0.35111016        0
H       -2.18078184      -1.12239265      -1.37780166        0
H       -2.29884005      -0.73602724       0.36305255        0
H       -0.51656288       0.91875333       0.12542537        0
13
Properties=species:S:1:pos:R:3:tags:I:1 charge=0 spin=1 pbc="F F F"
C        1.69052017       0.84263253       0.40156567        0
O        0.35759705       0.35659212       0.64327312        0
C       -0.29221320      -1.01680589      -0.38049418        0
C       -1.70372224      -0.55545396      -0.54357016        0
O       -1.49436188       0.79569691      -0.78701669        0
H        1.79509950       1.82615089       0.90923506        0
H        2.41212273       0.13377529       0.80826277        0
H        1.80364108       0.95645481      -0.69647384        0
H        0.29492116      -0.80381143      -1.28827035        0
H        0.03077629      -1.75219631       0.35027295        0
H       -2.18986201      -1.11514640      -1.38450754        0
H       -2.30453205      -0.73634672       0.35916784        0
H       -0.49924648       0.90861571       0.13941187        0
13
Properties=species:S:1:pos:R:3:tags:I:1 charge=0 spin=1 pbc="F F F"
C        1.68898225       0.84829092       0.40325737        0
O        0.36227593       0.35340998       0.65416455        0
C       -0.29891789      -1.02358019      -0.38657567        0
C       -1.70798540      -0.55682081      -0.54753828        0
O       -1.48072338       0.79232204      -0.78574932        0
H        1.79021525       1.83499098       0.90445906        0
H        2.41755676       0.14662057       0.81109226        0
H        1.80026531       0.95796168      -0.69568682        0
H        0.29061866      -0.81529647      -1.29360235        0
H        0.02690434      -1.75297463       0.34905589        0
H       -2.19905686      -1.10800028      -1.39070368        0
H       -2.30989742      -0.73637748       0.35562634        0
H       -0.48273945       0.89889431       0.15277058        0
13
Properties=species:S:1:pos:R:3:tags:I:1 charge=0 spin=1 pbc="F F F"
C        1.68754315       0.85382736       0.40513134        0
O        0.36712381       0.35042900       0.66509420        0
C       -0.30560151      -1.03001153      -0.39284921        0
C       -1.71225107      -0.55820340      -0.55136710        0
O       -1.46733749       0.78860033      -0.78486949        0
H        1.78554988       1.84368205       0.89963347        0
H        2.42288804       0.15940976       0.81432641        0
H        1.79741395       0.95908463      -0.69455719        0
H        0.28606105      -0.82698095      -1.29925394        0
H        0.02321470      -1.75342798       0.34746367        0
H       -2.20836306      -1.10095847      -1.39639604        0
H       -2.31493592      -0.73613167       0.35242397        0
H       -0.46700716       0.88958502       0.16551557        0
13
Properties=species:S:1:pos:R:3:tags:I:1 charge=0 spin=1 pbc="F F F"
C        1.68620324       0.85924369       0.40718323        0
O        0.37212586       0.34765473       0.67604589        0
C       -0.31226456      -1.03611052      -0.39931139        0
C       -1.71651721      -0.55960399      -0.55505401        0
O       -1.45420682       0.78454375      -0.78436816        0
H        1.78110433       1.85222399       0.89475662        0
H        2.42811227       0.17214285       0.81796050        0
H        1.79507732       0.95982844      -0.69308746        0
H        0.28124169      -0.83885795      -1.30521774        0
H        0.01970856      -1.75356460       0.34550089        0
H       -2.21777582      -1.09402514      -1.40159011        0
H       -2.31964731      -0.73562121       0.34955671        0
H       -0.45201564       0.88068354       0.17766088        0
13
Properties=species:S:1:pos:R:3:tags:I:1 charge=0 spin=1 pbc="F F F"
C        1.68496346       0.86454213       0.40940860        0
O        0.37726748       0.34509289       0.68700397        0
C       -0.31890741      -1.04188800      -0.40595925        0
C       -1.72078228      -0.56102484      -0.55859655        0
O       -1.44133377       0.78016442      -0.78423584        0
H        1.77687907       1.86061752       0.88982671        0
H        2.43322563       0.18482007       0.82198977        0
H        1.79324579       0.96019828      -0.69128013        0
H        0.27615383      -0.85092032      -1.31148601        0
H        0.01638709      -1.75339258       0.34317178        0
H       -2.22729230      -1.08720410      -1.40629220        0
H       -2.32403111      -0.73485798       0.34702045        0
H       -0.43773133       0.87218559       0.18922067        0
13
Properties=species:S:1:pos:R:3:tags:I:1 charge=0 spin=1 pbc="F F F"
C        1.68382442       0.86972463       0.41180301        0
O        0.38253427       0.34274888       0.69795316        0
C       -0.32553050      -1.04735470      -0.41278923        0
C       -1.72504461      -0.56246787      -0.56199223        0
O       -1.42872047       0.77547425      -0.78446341        0
H        1.77287447       1.86886287       0.88484228        0
H        2.43822408       0.19744158       0.82640916        0
H        1.79190981       0.96019924      -0.68913788        0
H        0.27079111      -0.86316079      -1.31805098        0
H        0.01325122      -1.75292051       0.34048104        0
H       -2.23690772      -1.08049870      -1.41050792        0
H       -2.32808685      -0.73385364       0.34481093        0
H       -0.42412150       0.86408639       0.20020863        0
13
Properties=species:S:1:pos:R:3:tags:I:1 charge=0 spin=1 pbc="F F F"
C        1.68278658       0.87479353       0.41436210        0
O        0.38791206       0.34062821       0.70887876        0
C       -0.33213419      -1.05252147      -0.41979825        0
C       -1.72930241      -0.56393504      -0.56523889        0
O       -1.41636896       0.77048475      -0.78504133        0
H        1.76909137       1.87696075       0.87980163        0
H        2.44310403       0.21000767       0.83121371        0
H        1.79105961       0.95983624      -0.68666363        0
H        0.26514736      -0.87557238      -1.32490516        0
H        0.01030187      -1.75215650       0.33743268        0
H       -2.24661875      -1.07391274      -1.41424322        0
H       -2.33181429      -0.73261970       0.34292376        0
H       -0.41115433       0.85638130       0.21063864        0
13
Properties=species:S:1:pos:R:3:tags:I:1 charge=0 spin=1 pbc="F F F"
C        1.68185103       0.87975109       0.41708153        0
O        0.39338693       0.33873633       0.71976668        0
C       -0.33871898      -1.05739915      -0.42698336        0
C       -1.73355389      -0.56542826      -0.56833422        0
O       -1.40428054       0.76520747      -0.78596008        0
H        1.76552999       1.88491178       0.87470317        0
H        2.44786263       0.22251892       0.83639824        0
H        1.79068530       0.95911467      -0.68386030        0
H        0.25921682      -0.88814807      -1.33204103        0
H        0.00753970      -1.75110877       0.33403087        0
H       -2.25642109      -1.06744921      -1.41750407        0
H       -2.33521342      -0.73116755       0.34135452        0
H       -0.39879811       0.84906518       0.22052452        0
13
Properties=species:S:1:pos:R:3:tags:I:1 charge=0 spin=1 pbc="F F F"
C        1.68101835       0.88459945       0.41995701        0
O        0.39894521       0.33707845       0.73060316        0
C       -0.34528527      -1.06199849      -0.43434104        0
C       -1.73779738      -0.56694925      -0.57127619        0
O       -1.39245665       0.75965345      -0.78721046        0
H        1.76219094       1.89271665       0.86954558        0
H        2.45249605       0.23497574       0.84195745        0
H        1.79077709       0.95803958      -0.68073082        0
H        0.25299364      -0.90088052      -1.33945107        0
H        0.00496544      -1.74978542       0.33027953        0
H       -2.26631093      -1.06111097      -1.42029643        0
H       -2.33828425      -0.72950846       0.34009868        0
H       -0.38702226       0.84213316       0.22987953        0
13
Properties=species:S:1:pos:R:3:tags:I:1 charge=0 spin=1 pbc="F F F"
C        1.68028939       0.88934124       0.42298430        0
O        0.40457347       0.33565974       0.74137521        0
C       -0.35183340      -1.06633008      -0.44186845        0
C       -1.74203146      -0.56849980      -0.57406294        0
O       -1.38089836       0.75383389      -0.78878272        0
H        1.75907505       1.90037560       0.86432725        0
H        2.45700169       0.24737887       0.84788597        0
H        1.79132509       0.95661616      -0.67727816        0
H        0.24647242      -0.91376257      -1.34712780        0
H        0.00257954      -1.74819469       0.32618272        0
H       -2.27628469      -1.05490112      -1.42262614        0
H       -2.34102654      -0.72765362       0.33915150        0
H       -0.37579674       0.83557993       0.23871714        0
13
Properties=species:S:1:pos:R:3:tags:I:1 charge=0 spin=1 pbc="F F F"
C        1.67966509       0.89397895       0.42615920        0
O        0.41025850       0.33448541       0.75207031        0
C       -0.35836384      -1.07040513      -0.44956246        0
C       -1.74625409      -0.57008123      -0.57669258        0
O       -1.36960626       0.74775934      -0.79066741        0
H        1.75618267       1.90788960       0.85904688        0
H        2.46137619       0.25972903       0.85417819        0
H        1.79231882       0.95484972      -0.67350578        0
H        0.23964792      -0.92678726      -1.35506368        0
H        0.00038239      -1.74634469       0.32174391        0
H       -2.28633785      -1.04882193      -1.42449927        0
H       -2.34344029      -0.72561389       0.33850825        0
H       -0.36509234       0.82940030       0.24705061        0
13
Properties=species:S:1:pos:R:3:tags:I:1 charge=0 spin=1 pbc="F F F"
C        1.67914617       0.89851505       0.42947739        0
O        0.41598740       0.33356035       0.76267642        0
C       -0.36487705      -1.07423401      -0.45741990        0
C       -1.75046372      -0.57169515      -0.57916331        0
O       -1.35858059       0.74144036      -0.79285502        0
H        1.75351429       1.91525960       0.85370290        0
H        2.46561718       0.27202713       0.86082864        0
H        1.79374814       0.95274556      -0.66941684        0
H        0.23251516      -0.93994737      -1.36325157        0
H       -0.00162570      -1.74424374       0.31696707        0
H       -2.29646707      -1.04287565      -1.42592192        0
H       -2.34552550      -0.72340018       0.33816403        0
H       -0.35488051       0.82358861       0.25489300        0
13
Properties=species:S:1:pos:R:3:tags:I:1 charge=0 spin=1 pbc="F F F"
C        1.67873371       0.90295231       0.43293488        0
O        0.42174751       0.33288950       0.77318197        0
C       -0.37137330      -1.07782769      -0.46543798        0
C       -1.75465894      -0.57334292      -0.58147359        0
O       -1.34782171       0.73488718      -0.79533577        0
H        1.75107074       1.92248619       0.84829408        0
H        2.46972227       0.28427404       0.86783171        0
H        1.79560292       0.95030892      -0.66501474        0
H        0.22506937      -0.95323581      -1.37168407        0
H       -0.00344463      -1.74189949       0.31185538        0
H       -2.30666780      -1.03706467      -1.42689991        0
H       -2.34728289      -0.72102314       0.33811393        0
H       -0.34513336       0.81813943       0.26225749        0
13
Properties=species:S:1:pos:R:3:tags:I:1 charge=0 spin=1 pbc="F F F"
C        1.67842865       0.90729326       0.43652749        0
O        0.42752644       0.33247790       0.78357613        0
C       -0.37785304      -1.08119667      -0.47361362        0
C       -1.75883782      -0.57502568      -0.58362186        0
O       -1.33732963       0.72810996      -0.79810029        0
H        1.74885249       1.92957032       0.84281915        0
H        2.47368908       0.29647088       0.87518179        0
H        1.79787290       0.94754517      -0.66030288        0
H        0.21730605      -0.96664554      -1.38035393        0
H       -0.00507440      -1.73932016       0.30641234        0
H       -2.31693673      -1.03139055      -1.42743921        0
H       -2.34871197      -0.71849334       0.33835289        0
H       -0.33582395       0.81304687       0.26915675        0
13
Properties=species:S:1:pos:R:3:tags:I:1 charge=0 spin=1 pbc="F F F"
C        1.67823195       0.91154087       0.44025117        0
O        0.43331206       0.33232999       0.79384857        0
C       -0.38431659      -1.08435166      -0.48194391        0
C       -1.76299882      -0.57674479      -0.58560675        0
O       -1.32710361       0.72111839      -0.80113900        0
H        1.74685991       1.93651283       0.83727688        0
H        2.47751522       0.30861890       0.88287258        0
H        1.80054772       0.94445944      -0.65528488        0
H        0.20922068      -0.98016936      -1.38925385        0
H       -0.00651504      -1.73651361       0.30064100        0
H       -2.32726932      -1.02585506      -1.42754579        0
H       -2.34981346      -0.71582103       0.33887577        0
H       -0.32692593       0.80830514       0.27560353        0
13
Properties=species:S:1:pos:R:3:tags:I:1 charge=0 spin=1 pbc="F F F"
C        1.67814481       0.91569793       0.44410196        0
O        0.43909261       0.33245060       0.80398941        0
C       -0.39076439      -1.08730340      -0.49042594        0
C       -1.76714051      -0.57850111      -0.58742702        0
O       -1.31714296       0.71392214      -0.80444235        0
H        1.74509406       1.94331479       0.83166587        0
H        2.48119879       0.32071927       0.89089853        0
H        1.80361700       0.94105744      -0.64996433        0
H        0.20080948      -0.99380016      -1.39837694        0
H       -0.00776690      -1.73348796       0.29454458        0
H       -2.33766174      -1.02045941      -1.42722583        0
H       -2.35058761      -0.71301675       0.33967727        0
H       -0.31841385       0.80390841       0.28161028        0
13
Properties=species:S:1:pos:R:3:tags:I:1 charge=0 spin=1 pbc="F F F"
C        1.67816818       0.91976732       0.44807568        0
O        0.44485652       0.33284429       0.81398928        0
C       -0.39719665      -1.09006226      -0.49905682        0
C       -1.77126110      -0.58029574      -0.58908153        0
O       -1.30744696       0.70653021      -0.80800080        0
H        1.74355507       1.94997692       0.82598507        0
H        2.48473811       0.33277327       0.89925349        0
H        1.80707002       0.93734425      -0.64434481        0
H        0.19206837      -1.00753117      -1.40771604        0
H       -0.00883026      -1.73025107       0.28812581        0
H       -2.34811091      -1.01520491      -1.42648482        0
H       -2.35103464      -0.71009034       0.34075215        0
H       -0.31026268       0.79985052       0.28718966        0
13
Properties=species:S:1:pos:R:3:tags:I:1 charge=0 spin=1 pbc="F F F"
C        1.67830324       0.92375219       0.45216867        0
O        0.45059261       0.33351541       0.82383966        0
C       -0.40361384      -1.09263885      -0.50783390        0
C       -1.77535903      -0.58212942      -0.59056914        0
O       -1.29801393       0.69895184      -0.81180477        0
H        1.74224424       1.95650053       0.82023340        0
H        2.48813152       0.34478253       0.90793145        0
H        1.81089628       0.93332541      -0.63843024        0
H        0.18299371      -1.02135515      -1.41726398        0
H       -0.00970572      -1.72681046       0.28138745        0
H       -2.35861182      -1.01009226      -1.42532921        0
H       -2.35115528      -0.70705187       0.34209499        0
H       -0.30244863       0.79612541       0.29235357        0
13
Properties=species:S:1:pos:R:3:tags:I:1 charge=0 spin=1 pbc="F F F"
C        1.67855096       0.92765552       0.45637679        0
O        0.45628986       0.33446831       0.83353221        0
C       -0.41001612      -1.09504354      -0.51675427        0
C       -1.77943289      -0.58400303      -0.59188908        0
O       -1.28884268       0.69119585      -0.81584489        0
H        1.74116170       1.96288669       0.81440979        0
H        2.49137807       0.35674846       0.91692632        0
H        1.81508529       0.92900628      -0.63222432        0
H        0.17358220      -1.03526509      -1.42701411        0
H       -0.01039386      -1.72317398       0.27433217        0
H       -2.36916113      -1.00512218      -1.42376471        0
H       -2.35094976      -0.70391113       0.34370014        0
H       -0.29494852       0.79272687       0.29711434        0
13
Properties=species:S:1:pos:R:3:tags:I:1 charge=0 spin=1 pbc="F F F"
C        1.67891288       0.93148035       0.46069628        0
O        0.46193767       0.33570731       0.84305930        0
C       -0.41640389      -1.09728694      -0.52581525        0
C       -1.78348136      -0.58591717      -0.59304047        0
O       -1.27993155       0.68327045      -0.82011187        0
H        1.74030805       1.96913636       0.80851305        0
H        2.49447560       0.36867273       0.92623174        0
H        1.81962633       0.92439222      -0.62573111        0
H        0.16383055      -1.04925418      -1.43695974        0
H       -0.01089546      -1.71934938       0.26696235        0
H       -2.37975478      -1.00029528      -1.42179680        0
H       -2.35041881      -0.70067775       0.34556219        0
H       -0.28773984       0.78964841       0.30148387        0
13
Properties=species:S:1:pos:R:3:tags:I:1 charge=0 spin=1 pbc="F F F"
C        1.67938972       0.93523008       0.46512333        0
O        0.46752572       0.33723658       0.85241383        0
C       -0.42277738      -1.09937906      -0.53501427        0
C       -1.78750253      -0.58787245      -0.59402269        0
O       -1.27127814       0.67518413      -0.82459629        0
H        1.73968446       1.97525060       0.80254221        0
H        2.49742341       0.38055712       0.93584168        0
H        1.82450926       0.91948879      -0.61895430        0
H        0.15373573      -1.06331563      -1.44709373        0
H       -0.01121143      -1.71534443       0.25928026        0
H       -2.39038920      -0.99561137      -1.41943181        0
H       -2.34956288      -0.69736135       0.34767538        0
H       -0.28080076       0.78688383       0.30547404        0
13
Properties=species:S:1:pos:R:3:tags:I:1 charge=0 spin=1 pbc="F F F"
C        1.67998314       0.93890792       0.46965414        0
O        0.47304398       0.33906019       0.86158913        0
C       -0.42913678      -1.10133052      -0.54434836        0
C       -1.79149508      -0.58986938      -0.59483516        0
O       -1.26288044       0.66694474      -0.82928890        0
H        1.73929143       1.98123074       0.79649639        0
H        2.50022030       0.39240336       0.94574964        0
H        1.82972276       0.91430128      -0.61189812        0
H        0.14329490      -1.07744229      -1.45740974        0
H       -0.01134279      -1.71116638       0.25128794        0
H       -2.40106010      -0.99107057      -1.41667521        0
H       -2.34838271      -0.69397122       0.35003397        0
H       -0.27411065       0.78442657       0.30909637        0
13
Properties=species:S:1:pos:R:3:tags:I:1 charge=0 spin=1 pbc="F F F"
C        1.68069434       0.94251728       0.47428501        0
O        0.47848269       0.34118199       0.87057918        0
C       -0.43548235      -1.10315096      -0.55381525        0
C       -1.79545760      -0.59190822      -0.59547752        0
O       -1.25473595       0.65856004      -0.83418047        0
H        1.73912942       1.98707819       0.79037458        0
H        2.50286603       0.40421337       0.95594931        0
H        1.83525634       0.90883523      -0.60456645        0
H        0.13250560      -1.09162772      -1.46790111        0
H       -0.01129076      -1.70682299       0.24298747        0
H       -2.41176414      -0.98667228      -1.41353297        0
H       -2.34687901      -0.69051659       0.35263214        0
H       -0.26764920       0.78227013       0.31236243        0
13
Properties=species:S:1:pos:R:3:tags:I:1 charge=0 spin=1 pbc="F F F"
C        1.68152440       0.94606137       0.47901231        0
O        0.48383251       0.34360608       0.87937862        0
C       -0.44181436      -1.10485101      -0.56341225        0
C       -1.79938889      -0.59398931      -0.59594941        0
O       -1.24684179       0.65003723      -0.83926201        0
H        1.73919964       1.99279392       0.78417587        0
H        2.50535989       0.41598919       0.96643436        0
H        1.84109938       0.90309584      -0.59696335        0
H        0.12136528      -1.10586500      -1.47856128        0
H       -0.01105665      -1.70232153       0.23438029        0
H       -2.42249703      -0.98241621      -1.41001058        0
H       -2.34505248      -0.68700659       0.35546398        0
H       -0.26139703       0.78040791       0.31528366        0
13
Properties=species:S:1:pos:R:3:tags:I:1 charge=0 spin=1 pbc="F F F"
C        1.68247485       0.94954383       0.48383230        0
O        0.48908433       0.34633607       0.88798213        0
C       -0.44813287      -1.10644031      -0.57313681        0
C       -1.80328703      -0.59611285      -0.59625071        0
O       -1.23919511       0.64138371      -0.84452426        0
H        1.73950291       1.99837911       0.77789956        0
H        2.50770092       0.42773271       0.97719818        0
H        1.84724116       0.89708889      -0.58909303        0
H        0.10987189      -1.12014723      -1.48938382        0
H       -0.01064189      -1.69766963       0.22546838        0
H       -2.43325543      -0.97830135      -1.40611362        0
H       -2.34290361      -0.68345022       0.35852358        0
H       -0.25533554       0.77883327       0.31787121        0
13
Properties=species:S:1:pos:R:3:tags:I:1 charge=0 spin=1 pbc="F F F"
C        1.68354690       0.95296818       0.48874146        0
O        0.49422929       0.34937567       0.89638531        0
C       -0.45443809      -1.10792887      -0.58298635        0
C       -1.80715108      -0.59827888      -0.59638131        0
O       -1.23179245       0.63260633      -0.84995884        0
H        1.74003959       2.00383520       0.77154469        0
H        2.50988889       0.43944612       0.98823452        0
H        1.85367084       0.89081949      -0.58095968        0
H        0.09802336      -1.13446796      -1.50036263        0
H       -0.01004802      -1.69287443       0.21625297        0
H       -2.44403505      -0.97432649      -1.40184808        0
H       -2.34043360      -0.67985624       0.36180472        0
H       -0.24944699       0.77753961       0.32013622        0
13
Properties=species:S:1:pos:R:3:tags:I:1 charge=0 spin=1 pbc="F F F"
C        1.68474209       0.95633805       0.49373624        0
O        0.49925894       0.35272861       0.90458411        0
C       -0.46073017      -1.10932660      -0.59295857        0
C       -1.81097949      -0.60048747      -0.59634149        0
O       -1.22463083       0.62371165      -0.85555649        0
H        1.74081111       2.00916386       0.76511055        0
H        2.51192403       0.45113164       0.99953675        0
H        1.86037803       0.88429332      -0.57256722        0
H        0.08581796      -1.14882064      -1.51149118        0
H       -0.00927684      -1.68794322       0.20673539        0
H       -2.45483232      -0.97049057      -1.39721918        0
H       -2.33764267      -0.67623341       0.36530140        0
H       -0.24371403       0.77652013       0.32208958        0
13
Properties=species:S:1:pos:R:3:tags:I:1 charge=0 spin=1 pbc="F F F"
C        1.68606174       0.95965683       0.49881309        0
O        0.50416517       0.35639814       0.91257501        0
C       -0.46700916      -1.11064327      -0.60305083        0
C       -1.81477094      -0.60273838      -0.59613115        0
O       -1.21770620       0.61470610      -0.86130869        0
H        1.74181795       2.01436567       0.75859648        0
H        2.51380587       0.46279138       1.01109827        0
H        1.86735141       0.87751555      -0.56392008        0
H        0.07325399      -1.16319871      -1.52276373        0
H       -0.00833018      -1.68288314       0.19691665        0
H       -2.46564412      -0.96679181      -1.39223242        0
H       -2.33453250      -0.67259014       0.36900750        0
H       -0.23812050       0.77576792       0.32374227        0
13
Properties=species:S:1:pos:R:3:tags:I:1 charge=0 spin=1 pbc="F F F"
C        1.68750703       0.96292859       0.50396872        0
O        0.50894010       0.36038801       0.92035484        0
C       -0.47327521      -1.11188829      -0.61326110        0
C       -1.81852400      -0.60503149      -0.59575087        0
O       -1.21101511       0.60559577      -0.86720699        0
H        1.74306154       2.01944280       0.75200176        0
H        2.51553488       0.47442779       1.02291262        0
H        1.87458038       0.87049198      -0.55502236        0
H        0.06032988      -1.17759550      -1.53417385        0
H       -0.00721005      -1.67770147       0.18679769        0
H       -2.47646570      -0.96322823      -1.38689351        0
H       -2.33110332      -0.66893512       0.37291649        0
H       -0.23265043       0.77527642       0.32510492        0
13
Properties=species:S:1:pos:R:3:tags:I:1 charge=0 spin=1 pbc="F F F"
C        1.68907976       0.96615696       0.50919950        0
O        0.51357627       0.36470133       0.92792118        0
C       -0.47952840      -1.11307120      -0.62358671        0
C       -1.82223761      -0.60736656      -0.59520102        0
O       -1.20455337       0.59638643      -0.87324280        0
H        1.74454260       2.02439618       0.74532568        0
H        2.51711082       0.48604327       1.03497326        0
H        1.88205445       0.86322749      -0.54587817        0
H        0.04704440      -1.19200504      -1.54571593        0
H       -0.00591856      -1.67240512       0.17637925        0
H       -2.48729444      -0.95979810      -1.38120735        0
H       -2.32735634      -0.66527647       0.37702221        0
H       -0.22728899       0.77503884       0.32618812        0
13
Properties=species:S:1:pos:R:3:tags:I:1 charge=0 spin=1 pbc="F F F"
C        1.69078112       0.96934569       0.51450229        0
O        0.51806629       0.36934146       0.93527162        0
C       -0.48576871      -1.11420178      -0.63402534        0
C       -1.82591033      -0.60974312      -0.59448206        0
O       -1.19831657       0.58708370      -0.87940812        0
H        1.74626195       2.02922750       0.73856771        0
H        2.51853418       0.49764001       1.04727376        0
H        1.88976252       0.85572803      -0.53649187        0
H        0.03339660      -1.20642066      -1.55738366        0
H       -0.00445803      -1.66700137       0.16566204        0
H       -2.49812603      -0.95649886      -1.37517953        0
H       -2.32329226      -0.66162246       0.38131824        0
H       -0.22202194       0.77504808       0.32700238        0
13
Properties=species:S:1:pos:R:3:tags:I:1 charge=0 spin=1 pbc="F F F"
C        1.69261277       0.97249866       0.51987368        0
O        0.52240336       0.37431145       0.94240457        0
C       -0.49199614      -1.11528885      -0.64457476        0
C       -1.82954085      -0.61216074      -0.59359491        0
O       -1.19230056       0.57769299      -0.88569480        0
H        1.74822128       2.03393769       0.73172724        0
H        2.51980567       0.50922066       1.05980706        0
H        1.89769399       0.84799862      -0.52686763        0
H        0.01938531      -1.22083604      -1.56917167        0
H       -0.00283083      -1.66149700       0.15464638        0
H       -2.50895739      -0.95332783      -1.36881518        0
H       -2.31891251      -0.65798116       0.38579804        0
H       -0.21683559       0.77529752       0.32755798        0
13
Properties=species:S:1:pos:R:3:tags:I:1 charge=0 spin=1 pbc="F F F"
C        1.69457614       0.97561979       0.52531046        0
O        0.52658081       0.37961453       0.94931889        0
C       -0.49821079      -1.11634219      -0.65523273        0
C       -1.83312809      -0.61461872      -0.59254038        0
O       -1.18650091       0.56821930      -0.89209461        0
H        1.75042129       2.03852844       0.72480386        0
H        2.52092576       0.52078766       1.07256711        0
H        1.90583849       0.84004498      -0.51700956        0
H        0.00500992      -1.23524535      -1.58107400        0
H       -0.00103953      -1.65589893       0.14333248        0
H       -2.51978421      -0.95028251      -1.36211967        0
H       -2.31421733      -0.65436047       0.39045513        0
H       -0.21171710       0.77578008       0.32786539        0
13
Properties=species:S:1:pos:R:3:tags:I:1 charge=0 spin=1 pbc="F F F"
C        1.69667244       0.97871315       0.53080946        0
O        0.53059238       0.38525361       0.95601356        0
C       -0.50441253      -1.11737037      -0.66599703        0
C       -1.83667076      -0.61711663      -0.59131926        0
O       -1.18091273       0.55866748      -0.89860016        0
H        1.75286305       2.04300165       0.71779704        0
H        2.52189517       0.53234351       1.08554697        0
H        1.91418457       0.83187211      -0.50692189        0
H       -0.00973034      -1.24964201      -1.59308529        0
H        0.00091316      -1.65021408       0.13172048        0
H       -2.53060341      -0.94735968      -1.35509777        0
H       -2.30920815      -0.65076834       0.39528289        0
H       -0.20665407       0.77648914       0.32793462        0
13
Properties=species:S:1:pos:R:3:tags:I:1 charge=0 spin=1 pbc="F F F"
C        1.69890368       0.98178262       0.53636742        0
O        0.53443199       0.39123163       0.96248817        0
C       -0.51060146      -1.11838281      -0.67686528        0
C       -1.84016752      -0.61965346      -0.58993280        0
O       -1.17553127       0.54904211      -0.90520352        0
H        1.75554836       2.04735804       0.71070617        0
H        2.52271461       0.54389095       1.09874034        0
H        1.92272174       0.82348579      -0.49660873        0
H       -0.02483597      -1.26402032      -1.60519993        0
H        0.00302444      -1.64444923       0.11981037        0
H       -2.54141164      -0.94455600      -1.34775484        0
H       -2.30388594      -0.64721239       0.40027463        0
H       -0.20163497       0.77741766       0.32777587        0
13
Properties=species:S:1:pos:R:3:tags:I:1 charge=0 spin=1 pbc="F F F"
C        1.70127094       0.98483235       0.54198146        0
O        0.53809398       0.39755154       0.96874273        0
C       -0.51677740      -1.11938810      -0.68783545        0
C       -1.84361744      -0.62222856      -0.58838218        0
O       -1.17035127       0.53934759      -0.91189760        0
H        1.75847816       2.05159926       0.70353103        0
H        2.52338505       0.55543256       1.11214066        0
H        1.93143952       0.81489110      -0.48607424        0
H       -0.04030734      -1.27837420      -1.61741257        0
H        0.00529134      -1.63861132       0.10760173        0
H       -2.55220532      -0.94186813      -1.34009540        0
H       -2.29825163      -0.64370036       0.40542364        0
H       -0.19664866       0.77855885       0.32739899        0
13
Properties=species:S:1:pos:R:3:tags:I:1 charge=0 spin=1 pbc="F F F"
C        1.70377600       0.98786640       0.54764831        0
O        0.54157287       0.40421599       0.97477752        0
C       -0.52294028      -1.12039518      -0.69890511        0
C       -1.84701908      -0.62484086      -0.58666873        0
O       -1.16536784       0.52958804      -0.91867495        0
H        1.76165366       2.05572701       0.69627130        0
H        2.52390742       0.56697088       1.12574112        0
H        1.94032693       0.80609357      -0.47532251        0
H       -0.05614445      -1.29269755      -1.62971759        0
H        0.00771080      -1.63270688       0.09509429        0
H       -2.56298065      -0.93929225      -1.33212471        0
H       -2.29230642      -0.64023972       0.41072321        0
H       -0.19168484       0.77990592       0.32681414        0
13
Properties=species:S:1:pos:R:3:tags:I:1 charge=0 spin=1 pbc="F F F"
C        1.70642042       0.99088895       0.55336511        0
O        0.54486358       0.41122761       0.98059320        0
C       -0.52909011      -1.12141252      -0.71007222        0
C       -1.85037136      -0.62748939      -0.58479393        0
O       -1.16057575       0.51976734      -0.92552841        0
H        1.76507688       2.05974269       0.68892658        0
H        2.52428269       0.57850868       1.13953543        0
H        1.94937325       0.79709858      -0.46435764        0
H       -0.07234767      -1.30698478      -1.64210975        0
H        0.01027952      -1.62674260       0.08228755        0
H       -2.57373428      -0.93682432      -1.32384741        0
H       -2.28605127      -0.63683796       0.41616634        0
H       -0.18673345       0.78145188       0.32603109        0
13
Properties=species:S:1:pos:R:3:tags:I:1 charge=0 spin=1 pbc="F F F"
C        1.70920539       0.99390411       0.55912894        0
O        0.54796124       0.41858914       0.98619097        0
C       -0.53522664      -1.12244904      -0.72133470        0
C       -1.85367322      -0.63017309      -0.58275926        0
O       -1.15596938       0.50988919      -0.93245143        0
H        1.76874888       2.06364751       0.68149650        0
H        2.52451277       0.59004861       1.15351713        0
H        1.95856822       0.78791142      -0.45318365        0
H       -0.08891684      -1.32123017      -1.65458405        0
H        0.01299416      -1.62072527       0.06918076        0
H       -2.58446336      -0.93446034      -1.31526828        0
H       -2.27948713      -0.63350236       0.42174613        0
H       -0.18178540       0.78318995       0.32505956        0
13
Properties=species:S:1:pos:R:3:tags:I:1 charge=0 spin=1 pbc="F F F"
C        1.71213293       0.99691617       0.56493688        0
O        0.55086124       0.42630330       0.99157220        0
C       -0.54134983      -1.12351298      -0.73269022        0
C       -1.85692358      -0.63289064      -0.58056653        0
O       -1.15154362       0.49995703      -0.93943703        0
H        1.77267122       2.06744289       0.67398089        0
H        2.52459788       0.60159338       1.16767955        0
H        1.96790063       0.77853733      -0.44180450        0
H       -0.10585186      -1.33542800      -1.66713548        0
H        0.01585121      -1.61466146       0.05577299        0
H       -2.59516382      -0.93219578      -1.30639207        0
H       -2.27261519      -0.63024020       0.42745578        0
H       -0.17683169       0.78511333       0.32390943        0
13
Properties=species:S:1:pos:R:3:tags:I:1 charge=0 spin=1 pbc="F F F"
C        1.71520424       0.99992937       0.57078612        0
O        0.55355924       0.43437231       0.99673861        0
C       -0.54745954      -1.12461257      -0.74413663        0
C       -1.86012113      -0.63564080      -0.57821757        0
O       -1.14729226       0.48997414      -0.94647902        0
H        1.77684581       2.07113051       0.66637969        0
H        2.52454019       0.61314595       1.18201649        0
H        1.97735989       0.76898181      -0.43022409        0
H       -0.12315238      -1.34957242      -1.67975879        0
H        0.01884700      -1.60855794       0.04206324        0
H       -2.60583282      -0.93002611      -1.29722309        0
H       -2.26543641      -0.62705874       0.43328810        0
H       -0.17186436       0.78721541       0.32259047        0
13
Properties=species:S:1:pos:R:3:tags:I:1 charge=0 spin=1 pbc="F F F"
C        1.71842110       1.00294805       0.57667375        0
O        0.55605137       0.44279873       1.00169230        0
C       -0.55355561      -1.12575614      -0.75567204        0
C       -1.86326492      -0.63842225      -0.57571429        0
O       -1.14321017       0.47994351      -0.95357114        0
H        1.78127396       2.07471156       0.65869260        0
H        2.52434063       0.62470877       1.19652128        0
H        1.98693562       0.75925016      -0.41844630        0
H       -0.14081815      -1.36365819      -1.69244897        0
H        0.02197781      -1.60242105       0.02805045        0
H       -2.61646700      -0.92794651      -1.28776610        0
H       -2.25795197      -0.62396497       0.43923607        0
H       -0.16687533       0.78948921       0.32111222        0
13
Properties=species:S:1:pos:R:3:tags:I:1 charge=0 spin=1 pbc="F F F"
C        1.72178507       1.00597656       0.58259737        0
O        0.55833375       0.45158511       1.00643551        0
C       -0.55963796      -1.12695181      -0.76729399        0
C       -1.86635387      -0.64123338      -0.57305872        0
O       -1.13929117       0.46986803      -0.96070713        0
H        1.78595805       2.07818770       0.65091944        0
H        2.52400064       0.63628471       1.21118808        0
H        1.99661696       0.74934769      -0.40647486        0
H       -0.15884867      -1.37767982      -1.70520151        0
H        0.02523971      -1.59625733       0.01373327        0
H       -2.62706304      -0.92595184      -1.27802539        0
H       -2.25016284      -0.62096596       0.44529259        0
H       -0.16185755       0.79192799       0.31948438        0
13
Properties=species:S:1:pos:R:3:tags:I:1 charge=0 spin=1 pbc="F F F"
C        1.72529745       1.00901914       0.58855408        0
O        0.56040281       0.46073344       1.01097095        0
C       -0.56570631      -1.12820756      -0.77900052        0
C       -1.86938679      -0.64407289      -0.57025319        0
O       -1.13552952       0.45975041      -0.96788144        0
H        1.79089963       2.08155990       0.64306033        0
H        2.52352262       0.64787662       1.22600973        0
H        2.00639319       0.73927975      -0.39431369        0
H       -0.17724320      -1.39163172      -1.71801090        0
H        0.02862862      -1.59007347      -0.00088960        0
H       -2.63761759      -0.92403704      -1.26800549        0
H       -2.24207020      -0.61806870       0.45145032        0
H       -0.15680403       0.79452527       0.31771681        0
13
Properties=species:S:1:pos:R:3:tags:I:1 charge=0 spin=1 pbc="F F F"
C        1.72896016       1.01208031       0.59454125        0
O        0.56225544       0.47024626       1.01530159        0
C       -0.57176054      -1.12953115      -0.79078931        0
C       -1.87236249      -0.64693880      -0.56729984        0
O       -1.13191950       0.44959313      -0.97508824        0
H        1.79610038       2.08482981       0.63511503        0
H        2.52290702       0.65948713       1.24098074        0
H        2.01625443       0.72905165      -0.38196635        0
H       -0.19600120      -1.40550876      -1.73087299        0
H        0.03214043      -1.58387601      -0.01581982        0
H       -2.64812756      -0.92219669      -1.25771046        0
H       -2.23367500      -0.61528003       0.45770210        0
H       -0.15170863       0.79727429       0.31581888        0
13
Properties=species:S:1:pos:R:3:tags:I:1 charge=0 spin=1 pbc="F F F"
C        1.73277438       1.01516449       0.60055643        0
O        0.56388843       0.48012567       1.01943052        0
C       -0.57780045      -1.13093054      -0.80265832        0
C       -1.87528014      -0.64982980      -0.56420124        0
O       -1.12845457       0.43939841      -0.98232239        0
H        1.80156279       2.08799887       0.62708378        0
H        2.52215624       0.67111903       1.25609446        0
H        2.02618885       0.71866870      -0.36943650        0
H       -0.21512187      -1.41930556      -1.74378288        0
H        0.03577077      -1.57767141      -0.03105903        0
H       -2.65858984      -0.92042506      -1.24714482        0
H       -2.22497845      -0.61260676       0.46404055        0
H       -0.14656518       0.80016851       0.31380045        0
13
Properties=species:S:1:pos:R:3:tags:I:1 charge=0 spin=1 pbc="F F F"
C        1.73674202       1.01827610       0.60659719        0
O        0.56529921       0.49037379       1.02336144        0
C       -0.58382595      -1.13241339      -0.81460541        0
C       -1.87813878      -0.65274376      -0.56095988        0
O       -1.12512910       0.42916846      -0.98957872        0
H        1.80728877       2.09106803       0.61896646        0
H        2.52127171       0.68277508       1.27134466        0
H        2.03618670       0.70813632      -0.35672772        0
H       -0.23460439      -1.43301713      -1.75673592        0
H        0.03951524      -1.57146609      -0.04660892        0
H       -2.66900110      -0.91871655      -1.23631251        0
H       -2.21598172      -0.61005569       0.47045833        0
H       -0.14136793       0.80320114       0.31167111        0
13
Properties=species:S:1:pos:R:3:tags:I:1 charge=0 spin=1 pbc="F F F"
C        1.74086440       1.02141976       0.61266094        0
O        0.56648511       0.50099277       1.02709770        0
C       -0.58983666      -1.13398719      -0.82662821        0
C       -1.88093698      -0.65567899      -0.55757833        0
O       -1.12193692       0.41890526      -0.99685204        0
H        1.81328034       2.09403896       0.61076319        0
H        2.52025533       0.69445807       1.28672528        0
H        2.04623699       0.69745964      -0.34384340        0
H       -0.25444779      -1.44663835      -1.76972735        0
H        0.04336924      -1.56526673      -0.06247157        0
H       -2.67935848      -0.91706514      -1.22521758        0
H       -2.20668578      -0.60763347       0.47694802        0
H       -0.13611189       0.80636573       0.30944040        0
13
Properties=species:S:1:pos:R:3:tags:I:1 charge=0 spin=1 pbc="F F F"
C        1.74514341       1.02459979       0.61874539        0
O        0.56744379       0.51198483       1.03064334        0
C       -0.59583271      -1.13565946      -0.83872485        0
C       -1.88367391      -0.65863347      -0.55405939        0
O       -1.11887157       0.40861052      -1.00413799        0
H        1.81954014       2.09691286       0.60247415        0
H        2.51910901       0.70617092       1.30223012        0
H        2.05632949       0.68664414      -0.33078688        0
H       -0.27465117      -1.46016419      -1.78275311        0
H        0.04732814      -1.55907977      -0.07864901        0
H       -2.68965864      -0.91546470      -1.21386421        0
H       -2.19709158      -0.60534686       0.48350215        0
H       -0.13079186       0.80965573       0.30711815        0
13
Properties=species:S:1:pos:R:3:tags:I:1 charge=0 spin=1 pbc="F F F"
C        1.74958038       1.02782094       0.62484819        0
O        0.56817317       0.52335179       1.03400230        0
C       -0.60181361      -1.13743746      -0.85089266        0
C       -1.88634861      -0.66160518      -0.55040604        0
O       -1.11592710       0.39828613      -1.01143169        0
H        1.82607031       2.09969068       0.59409952        0
H        2.51783419       0.71791601       1.31785333        0
H        2.06645322       0.67569518      -0.31756157        0
H       -0.29521334      -1.47358966      -1.79580796        0
H        0.05138704      -1.55291200      -0.09514308        0
H       -2.69989872      -0.91390896      -1.20225620        0
H       -2.18720055      -0.60320246       0.49011302        0
H       -0.12540357       0.81306481       0.30471426        0
13
Properties=species:S:1:pos:R:3:tags:I:1 charge=0 spin=1 pbc="F F F"
C        1.75417662       1.03108764       0.63096708        0
O        0.56867135       0.53509569       1.03717911        0
C       -0.60777938      -1.13932836      -0.86312968        0
C       -1.88895977      -0.66459209      -0.54662120        0
O       -1.11309707       0.38793349      -1.01872933        0
H        1.83287311       2.10237408       0.58563954        0
H        2.51643324       0.72969621       1.33358872        0
H        2.07659817       0.66461802      -0.30417067        0
H       -0.31613314      -1.48690975      -1.80888796        0
H        0.05554105      -1.54676962      -0.11195618        0
H       -2.71007562      -0.91239136      -1.19039774        0
H       -2.17701364      -0.60120684       0.49677318        0
H       -0.11994244       0.81658643       0.30223832        0
13
Properties=species:S:1:pos:R:3:tags:I:1 charge=0 spin=1 pbc="F F F"
C        1.75893414       1.03440464       0.63709980        0
O        0.56893665       0.54721832       1.04017782        0
C       -0.61372983      -1.14133978      -0.87543362        0
C       -1.89150655      -0.66759181      -0.54270798        0
O       -1.11037540       0.37755406      -1.02602673        0
H        1.83995128       2.10496354       0.57709444        0
H        2.51490760       0.74151427       1.34943008        0
H        2.08675289       0.65341806      -0.29061729        0
H       -0.33740941      -1.50011957      -1.82198894        0
H        0.05978508      -1.54065931      -0.12909061        0
H       -2.72018600      -0.91090542      -1.17829227        0
H       -2.16653204      -0.59936649       0.50347495        0
H       -0.11440465       0.82021427       0.29970026        0
13
Properties=species:S:1:pos:R:3:tags:I:1 charge=0 spin=1 pbc="F F F"
C        1.76385427       1.03777659       0.64324427        0
O        0.56896758       0.55972183       1.04300356        0
C       -0.61966479      -1.14347827      -0.88780206        0
C       -1.89398801      -0.67060226      -0.53866959        0
O       -1.10775554       0.36714911      -1.03331983        0
H        1.84730732       2.10746098       0.56846458        0
H        2.51325941       0.75337285       1.36537182        0
H        2.09690738       0.64210057      -0.27690449        0
H       -0.35904086      -1.51321447      -1.83510578        0
H        0.06411392      -1.53458786      -0.14654870        0
H       -2.73022771      -0.90944445      -1.16594398        0
H       -2.15575671      -0.59768796       0.51021045        0
H       -0.10878617       0.82394201       0.29710996        0
13
Properties=species:S:1:pos:R:3:tags:I:1 charge=0 spin=1 pbc="F F F"
C        1.76893854       1.04120803       0.64939833        0
O        0.56876278       0.57260787       1.04566085        0
C       -0.62558407      -1.14575112      -0.90023273        0
C       -1.89640284      -0.67362100      -0.53450930        0
O       -1.10523129       0.35671982      -1.04060543        0
H        1.85494423       2.10986733       0.55975032        0
H        2.51149106       0.76527458       1.38140786        0
H        2.10705090       0.63067108      -0.26303518        0
H       -0.38102621      -1.52618968      -1.84823465        0
H        0.06852227      -1.52856171      -0.16433302        0
H       -2.74019670      -0.90800136      -1.15335631        0
H       -2.14468884      -0.59617776       0.51697201        0
H       -0.10308363       0.82776332       0.29447749        0
13
Properties=species:S:1:pos:R:3:tags:I:1 charge=0 spin=1 pbc="F F F"
C        1.77418864       1.04470372       0.65556002        0
O        0.56832117       0.58587855       1.04815459        0
C       -0.63148761      -1.14816511      -0.91272336        0
C       -1.89875019      -0.67664570      -0.53023058        0
O       -1.10279632       0.34626719      -1.04787993        0
H        1.86286461       2.11218309       0.55095202        0
H        2.50960374       0.77722228       1.39753258        0
H        2.11717296       0.61913478      -0.24901219        0
H       -0.40336412      -1.53904057      -1.86137140        0
H        0.07300472      -1.52258766      -0.18244609        0
H       -2.75009108      -0.90656912      -1.14053285        0
H       -2.13332963      -0.59484237       0.52375191        0
H       -0.09729342       0.83167201       0.29181281        0
13
Properties=species:S:1:pos:R:3:tags:I:1 charge=0 spin=1 pbc="F F F"
C        1.77960587       1.04826832       0.66172719        0
O        0.56764162       0.59953529       1.05048990        0
C       -0.63737524      -1.15072715      -0.92527133        0
C       -1.90102899      -0.67967391      -0.52583694        0
O       -1.10044420       0.33579233      -1.05514038        0
H        1.87107098       2.11441016       0.54207015        0
H        2.50760007       0.78921837       1.41373968        0
H        2.12726259       0.60749733      -0.23483841        0
H       -0.42605293      -1.55176258      -1.87451124        0
H        0.07755563      -1.51667237      -0.20089042        0
H       -2.75990725      -0.90514076      -1.12747765        0
H       -2.12168002      -0.59368819       0.53054196        0
H       -0.09141266       0.83566177       0.28912616        0
13
Properties=species:S:1:pos:R:3:tags:I:1 charge=0 spin=1 pbc="F F F"
C        1.78519201       1.05190670       0.66789806        0
O        0.56672359       0.61358011       1.05267179        0
C       -0.64324683      -1.15344381      -0.93787444        0
C       -1.90323806      -0.68270296      -0.52133197        0
O       -1.09816873       0.32529607      -1.06238365        0
H        1.87956679       2.11654925       0.53310537        0
H        2.50548172       0.80126542       1.43002391        0
H        2.13730979       0.59576392      -0.22051650        0
H       -0.44909111      -1.56435096      -1.88765001        0
H        0.08216939      -1.51082253      -0.21966876        0
H       -2.76964259      -0.90370882      -1.11419392        0
H       -2.10974145      -0.59272164       0.53733438        0
H       -0.08543802       0.83972645       0.28642774        0
13
Properties=species:S:1:pos:R:3:tags:I:1 charge=0 spin=1 pbc="F F F"
C        1.79094839       1.05562341       0.67407060        0
O        0.56556624       0.62801456       1.05470574        0
C       -0.64910233      -1.15632188      -0.95052999        0
C       -1.90537655      -0.68573022      -0.51671946        0
O       -1.09596336       0.31477916      -1.06960714        0
H        1.88835490       2.11860085       0.52405798        0
H        2.50325108       0.81336617       1.44637907        0
H        2.14730334       0.58394015      -0.20604907        0
H       -0.47247756      -1.57680118      -1.90078402        0
H        0.08684017      -1.50504506      -0.23878373        0
H       -2.77929378      -0.90226591      -1.10068536        0
H       -2.09751487      -0.59194922       0.54412115        0
H       -0.07936680       0.84385997       0.28372797        0
13
Properties=species:S:1:pos:R:3:tags:I:1 charge=0 spin=1 pbc="F F F"
C        1.79687679       1.05942357       0.68024313        0
O        0.56416917       0.64284045       1.05659688        0
C       -0.65494174      -1.15936780      -0.96323544        0
C       -1.90744340      -0.68875313      -0.51200318        0
O       -1.09382164       0.30424237      -1.07680833        0
H        1.89743817       2.12056637       0.51492882        0
H        2.50091004       0.82552302       1.46279979        0
H        2.15723276       0.57203132      -0.19143856        0
H       -0.49621028      -1.58910882      -1.91390824        0
H        0.09156210      -1.49934685      -0.25823826        0
H       -2.78885865      -0.90080446      -1.08695531        0
H       -2.08500147      -0.59137720       0.55089402        0
H       -0.07319614       0.84805626       0.28103727        0
13
Properties=species:S:1:pos:R:3:tags:I:1 charge=0 spin=1 pbc="F F F"
C        1.80297852       1.06331193       0.68641376        0
O        0.56253195       0.65805942       1.05835080        0
C       -0.66076499      -1.16258824      -0.97598839        0
C       -1.90943730      -0.69176883      -0.50718707        0
O       -1.09173763       0.29368630      -1.08398497        0
H        1.90682018       2.12244678       0.50571835        0
H        2.49846077       0.83773863       1.47928011        0
H        2.16708708       0.56004310      -0.17668739        0
H       -0.52028775      -1.60126936      -1.92701888        0
H        0.09632912      -1.49373472      -0.27803504        0
H       -2.79833364      -0.89931697      -1.07300746        0
H       -2.07220268      -0.59101212       0.55764502        0
H       -0.06692319       0.85230923       0.27836621        0
13
Properties=species:S:1:pos:R:3:tags:I:1 charge=0 spin=1 pbc="F F F"
C        1.80925524       1.06729317       0.69258094        0
O        0.56065440       0.67367303       1.05997300        0
C       -0.66657203      -1.16598952      -0.98878622        0
C       -1.91135752      -0.69477451      -0.50227517        0
O       -1.08970439       0.28311157      -1.09113491        0
H        1.91650403       2.12424278       0.49642748        0
H        2.49590492       0.85001552       1.49581456        0
H        2.17685604       0.54798079      -0.16179791        0
H       -0.54470825      -1.61327851      -1.94011176        0
H        0.10113512      -1.48821557      -0.29817700        0
H       -2.80771661      -0.89779562      -1.05884504        0
H       -2.05911922      -0.59086025       0.56436586        0
H       -0.06054559       0.85661286       0.27572554        0
13
Properties=species:S:1:pos:R:3:tags:I:1 charge=0 spin=1 pbc="F F F"
C        1.81570840       1.07137215       0.69874281        0
O        0.55853647       0.68968314       1.06146908        0
C       -0.67236292      -1.16957808      -1.00162613        0
C       -1.91320288      -0.69776732      -0.49727145        0
O       -1.08771610       0.27251866      -1.09825647        0
H        1.92649293       2.12595510       0.48705670        0
H        2.49324489       0.86235595       1.51239777        0
H        2.18652868       0.53585005      -0.14677230        0
H       -0.56947047      -1.62513173      -1.95318258        0
H        0.10597388      -1.48279655      -0.31866705        0
H       -2.81700397      -0.89623249      -1.04447150        0
H       -2.04575253      -0.59092808       0.57104832        0
H       -0.05406044       0.86096120       0.27312610        0
13
Properties=species:S:1:pos:R:3:tags:I:1 charge=0 spin=1 pbc="F F F"
C        1.82233953       1.07555389       0.70489788        0
O        0.55617809       0.70609099       1.06284451        0
C       -0.67813766      -1.17336011      -1.01450539        0
C       -1.91497219      -0.70074433      -0.49218026        0
O       -1.08576643       0.26190817      -1.10534751        0
H        1.93679070       2.12758422       0.47760701        0
H        2.49048281       0.87476248       1.52902365        0
H        2.19609451       0.52365649      -0.13161287        0
H       -0.59457219      -1.63682473      -1.96622705        0
H        0.11083900      -1.47748482      -0.33950791        0
H       -2.82619333      -0.89461976      -1.02989042        0
H       -2.03210402      -0.59122199       0.57768387        0
H       -0.04746560       0.86534834       0.27057880        0
13
Properties=species:S:1:pos:R:3:tags:I:1 charge=0 spin=1 pbc="F F F"
C        1.82915020       1.07984340       0.71104449        0
O        0.55357939       0.72289836       1.06410515        0
C       -0.68389636      -1.17734194      -1.02742124        0
C       -1.91666448      -0.70370245      -0.48700583        0
O       -1.08384860       0.25128052      -1.11240697        0
H        1.94740045       2.12913156       0.46807930        0
H        2.48762107       0.88723761       1.54568672        0
H        2.20554209       0.51140559      -0.11632153        0
H       -0.62001175      -1.64835298      -1.97924137        0
H        0.11572406      -1.47228765      -0.36070257        0
H       -2.83528209      -0.89294940      -1.01510477        0
H       -2.01817465      -0.59174836       0.58426440        0
H       -0.04075823       0.86976826       0.26809490        0
13
Properties=species:S:1:pos:R:3:tags:I:1 charge=0 spin=1 pbc="F F F"
C        1.83614182       1.08424544       0.71718121        0
O        0.55074066       0.74010664       1.06525660        0
C       -0.68963909      -1.18152988      -1.04037082        0
C       -1.91827869      -0.70663863      -0.48175251        0
O       -1.08195686       0.24063610      -1.11943328        0
H        1.95832574       2.13059759       0.45847428        0
H        2.48466110       0.89978355       1.56238163        0
H        2.21486092       0.49910313      -0.10090031        0
H       -0.64578736      -1.65971231      -1.99222064        0
H        0.12062247      -1.46721208      -0.38225400        0
H       -2.84426665      -0.89121324      -1.00011802        0
H       -2.00396562      -0.59251362       0.59078115        0
H       -0.03393605       0.87421513       0.26568550        0
13
Properties=species:S:1:pos:R:3:tags:I:1 charge=0 spin=1 pbc="F F F"
C        1.84331608       1.08876526       0.72330654        0
O        0.54766226       0.75771755       1.06630445        0
C       -0.69536597      -1.18593001      -1.05335128        0
C       -1.91981375      -0.70954978      -0.47642478        0
O       -1.08008444       0.22997534      -1.12642539        0
H        1.96957052       2.13198233       0.44879311        0
H        2.48160529       0.91240275       1.57910264        0
H        2.22404027       0.48675466      -0.08535111        0
H       -0.67189723      -1.67089832      -2.00516105        0
H        0.12552762      -1.46226549      -0.40416503        0
H       -2.85314512      -0.88940328      -0.98493361        0
H       -1.98947883      -0.59352422       0.59722573        0
H       -0.02699629       0.87868315       0.26336217        0
13
Properties=species:S:1:pos:R:3:tags:I:1 charge=0 spin=1 pbc="F F F"
C        1.85067451       1.09340775       0.72941905        0
O        0.54434443       0.77573234       1.06725466        0
C       -0.70107728      -1.19054830      -1.06635976        0
C       -1.92126858      -0.71243268      -0.47102720        0
O       -1.07822549       0.21929856      -1.13338220        0
H        1.98113823       2.13328743       0.43903664        0
H        2.47845602       0.92509747       1.59584427        0
H        2.23306894       0.47436589      -0.06967573        0
H       -0.69833940      -1.68190670      -2.01805878        0
H        0.13043272      -1.45745552      -0.42643869        0
H       -2.86191392      -0.88751119      -0.96955466        0
H       -1.97471476      -0.59478664       0.60358965        0
H       -0.01993661       0.88316643       0.26113638        0
13
Properties=species:S:1:pos:R:3:tags:I:1 charge=0 spin=1 pbc="F F F"
C        1.85821843       1.09817791       0.73551738        0
O        0.54078782       0.79415274       1.06811273        0
C       -0.70677316      -1.19539094      -1.07939315        0
C       -1.92264175      -0.71528417      -0.46556428        0
O       -1.07637370       0.20860612      -1.14030290        0
H        1.99303293       2.13451266       0.42920595        0
H        2.47521496       0.93787020       1.61260104        0
H        2.24193621       0.46194255      -0.05387581        0
H       -0.72511202      -1.69273329      -2.03090882        0
H        0.13533098      -1.45278943      -0.44907787        0
H       -2.87057090      -0.88552862      -0.95398438        0
H       -1.95967519      -0.59630734       0.60986406        0
H       -0.01275410       0.88765913       0.25901991        0
13
Properties=species:S:1:pos:R:3:tags:I:1 charge=0 spin=1 pbc="F F F"
C        1.86594963       1.10308087       0.74160028        0
O        0.53699303       0.81297982       1.06888473        0
C       -0.71245384      -1.20046413      -1.09244835        0
C       -1.92393255      -0.71810079      -0.46004087        0
O       -1.07452261       0.19789846      -1.14718699        0
H        2.00525832       2.13565874       0.41930231        0
H        2.47188473       0.95072299       1.62936735        0
H        2.25063062       0.44949049      -0.03795324        0
H       -0.75221306      -1.70337355      -2.04370713        0
H        0.14021535      -1.44827521      -0.47208536        0
H       -2.87911272      -0.88344735      -0.93822622        0
H       -1.94436169      -0.59809273       0.61604023        0
H       -0.00544644       0.89215553       0.25702471        0
13
Properties=species:S:1:pos:R:3:tags:I:1 charge=0 spin=1 pbc="F F F"
C        1.87386942       1.10812163       0.74766636        0
O        0.53296053       0.83221525       1.06957603        0
C       -0.71811968      -1.20577371      -1.10552216        0
C       -1.92513978      -0.72087926      -0.45446169        0
O       -1.07266641       0.18717594      -1.15403366        0
H        2.01781797       2.13672662       0.40932673        0
H        2.46846700       0.96365821       1.64613760        0
H        2.25914121       0.43701547      -0.02190951        0
H       -0.77964056      -1.71382332      -2.05644989        0
H        0.14507884      -1.44392002      -0.49546400        0
H       -2.88753653      -0.88125890      -0.92228341        0
H       -1.92877531      -0.60014933       0.62210953        0
H        0.00198945       0.89664984       0.25516278        0
13
Properties=species:S:1:pos:R:3:tags:I:1 charge=0 spin=1 pbc="F F F"
C        1.88197947       1.11330545       0.75371444        0
O        0.52869117       0.85186040       1.07019258        0
C       -0.72377098      -1.21132553      -1.11861169        0
C       -1.92626202      -0.72361618      -0.44883159        0
O       -1.07079864       0.17643887      -1.16084290        0
H        2.03071618       2.13771629       0.39928055        0
H        2.46496391       0.97667801       1.66290617        0
H        2.26745701       0.42452338      -0.00574613        0
H       -0.80739248      -1.72407818      -2.06913209        0
H        0.14991432      -1.43973207      -0.51921672        0
H       -2.89584017      -0.87895483      -0.90615916        0
H       -1.91291749      -0.60248375       0.62806296        0
H        0.00955617       0.90113622       0.25344646        0
