13
Properties=species:S:1:pos:R:3:tags:I:1:momenta:R:3:forces:R:3 charge=0 spin=1 energy=-7329.208984375 pbc="F F F"
C        1.67828929       0.92345935       0.45186102        0       0.21962327       4.74386153       4.97569870       0.03446174      -0.01456010       0.01445743
O        0.45016828       0.33345601       0.82311422        0       9.15351684       1.26456606      15.65412619       0.00256592       0.00528562       0.00831196
C       -0.40313831      -1.09245372      -0.50717783        0      -7.69999854      -3.00482650     -10.61596290       0.00182849      -0.00864053       0.01830652
C       -1.77505589      -0.58199209      -0.59046453        0      -4.91011763      -2.22274468      -1.70119321      -0.01622844      -0.00911462      -0.00490573
O       -1.29870474       0.69952035      -0.81151426        0      14.91297493     -12.24793555      -6.24939863       0.00951757      -0.00432932      -0.00376138
H        1.74233365       1.95602131       0.82066262        0      -0.12235823       0.65165859      -0.58284096      -0.00197761       0.00224379       0.00587428
H        2.48788500       0.34389314       0.90727675        0       0.33576530       1.20864583       0.88844200      -0.02111977       0.00871532      -0.02086835
H        1.81059980       0.93363392      -0.63887906        0       0.40143601      -0.41807780       0.60875651      -0.00712772       0.00072628      -0.00593516
H        0.18367845      -1.02032650      -1.41654861        0      -0.92912719      -1.39726311      -0.97123386       0.00595519      -0.00321460       0.00129706
H       -0.00964722      -1.72707248       0.28189820        0      -0.08019337       0.35534541      -0.69286776      -0.00570657       0.01594557      -0.01690644
H       -2.35783124      -1.01046658      -1.42542911        0      -1.06064087       0.50923766       0.13414340       0.00662142       0.00400874       0.00441734
H       -2.35115743      -0.70728093       0.34198621        0       0.00184842       0.31082827       0.14670759      -0.00196481      -0.00146054      -0.00408928
H       -0.30301726       0.79639053       0.29198447        0       0.77380262      -0.36137389       0.50302398      -0.00682521       0.00439456       0.00380181
